p cnf 15 20
15 -14 4 0
-15 11 9 0
15 -11 8 0
15 10 1 0
15 5 -2 0
-14 -13 8 0
14 11 -7 0
-14 10 -8 0
-14 4 -1 0
-13 -12 -9 0
13 -11 10 0
-13 8 3 0
-13 -6 5 0
12 -4 2 0
-11 5 3 0
-10 -6 -5 0
-9 6 1 0
-9 4 -1 0
8 -6 1 0
7 -6 -4 0
